 Code  1333
 Dimension, Fixed Cost
   100        3000
 Facility, Client, Transportation Cost
     1        8           0
     1       36           1
     1       41           0
     1       50           1
     1       54           3
     1       62           3
     1       76           2
     1       81           0
     1       85           4
     1       95           0
     2       11           0
     2       14           0
     2       15           0
     2       26           1
     2       30           3
     2       37           1
     2       73           2
     2       74           0
     2       84           2
     2       88           2
     3        1           1
     3        6           3
     3       10           3
     3       14           3
     3       27           1
     3       40           2
     3       57           1
     3       59           2
     3       75           3
     3       85           1
     4        4           0
     4        9           0
     4       18           0
     4       23           2
     4       31           2
     4       42           1
     4       46           1
     4       49           2
     4       57           1
     4       77           4
     5        9           4
     5       12           1
     5       15           3
     5       28           1
     5       41           1
     5       57           0
     5       62           3
     5       66           1
     5       84           3
     5       88           0
     6       21           0
     6       26           2
     6       47           2
     6       65           1
     6       69           3
     6       70           2
     6       74           1
     6       78           3
     6       80           3
     6       89           1
     7       20           1
     7       33           2
     7       35           4
     7       47           4
     7       54           0
     7       62           4
     7       65           2
     7       74           0
     7       84           1
     7       86           2
     8        1           3
     8        7           1
     8       13           0
     8       19           0
     8       31           2
     8       32           0
     8       71           3
     8       72           2
     8       83           4
     8       85           0
     9        6           2
     9       30           4
     9       32           2
     9       37           4
     9       50           1
     9       59           4
     9       63           1
     9       64           4
     9       66           1
     9       68           2
    10       17           2
    10       31           0
    10       34           1
    10       68           3
    10       75           3
    10       76           4
    10       77           4
    10       86           4
    10       90           0
    10       97           3
    11        3           4
    11       24           0
    11       31           4
    11       34           3
    11       36           0
    11       45           4
    11       58           4
    11       66           0
    11       69           0
    11       77           2
    12        8           2
    12        9           2
    12       11           0
    12       14           2
    12       18           0
    12       28           2
    12       50           1
    12       53           0
    12       69           1
    12       82           0
    13        6           2
    13       15           2
    13       29           0
    13       30           2
    13       45           0
    13       47           1
    13       56           3
    13       64           3
    13       69           3
    13       77           0
    14       10           1
    14       12           4
    14       22           4
    14       48           0
    14       68           2
    14       72           1
    14       84           4
    14       90           1
    14       95           1
    14       98           4
    15        4           4
    15        5           0
    15       23           4
    15       45           2
    15       58           1
    15       81           3
    15       88           4
    15       92           2
    15       93           1
    15       95           3
    16        3           1
    16       13           2
    16       26           4
    16       30           3
    16       43           2
    16       49           0
    16       51           1
    16       65           2
    16       73           1
    16       90           2
    17       26           1
    17       60           1
    17       66           4
    17       82           3
    17       89           0
    17       96           1
    17       97           0
    17       98           3
    17       99           3
    17      100           0
    18        3           0
    18       15           2
    18       18           1
    18       48           0
    18       51           3
    18       54           1
    18       63           2
    18       73           2
    18       80           1
    18       87           3
    19        1           3
    19       13           2
    19       18           1
    19       34           0
    19       42           2
    19       44           4
    19       56           4
    19       59           2
    19       78           4
    19       81           3
    20        1           1
    20       13           0
    20       33           0
    20       51           3
    20       68           3
    20       74           4
    20       76           3
    20       97           3
    20       99           1
    20      100           2
    21        5           0
    21        6           0
    21       43           4
    21       52           3
    21       64           3
    21       66           2
    21       76           2
    21       81           1
    21       82           2
    21       88           0
    22        6           4
    22       16           2
    22       20           0
    22       37           4
    22       42           0
    22       74           1
    22       84           4
    22       85           0
    22       86           4
    22       94           0
    23        5           3
    23       18           4
    23       21           0
    23       39           2
    23       41           2
    23       44           0
    23       51           2
    23       65           4
    23       66           4
    23       79           3
    24        1           2
    24        2           1
    24        4           0
    24       29           3
    24       36           2
    24       62           1
    24       66           2
    24       75           4
    24       83           1
    24       89           2
    25       22           0
    25       24           3
    25       26           0
    25       35           2
    25       39           4
    25       83           0
    25       86           1
    25       92           1
    25       96           2
    25       99           4
    26        7           3
    26       10           2
    26       20           3
    26       32           0
    26       95           4
    26       96           1
    26       97           4
    26       98           1
    26       99           0
    26      100           0
    27       22           4
    27       25           1
    27       27           2
    27       46           4
    27       51           4
    27       61           0
    27       72           0
    27       73           4
    27       82           3
    27       91           0
    28       12           3
    28       29           4
    28       58           2
    28       60           2
    28       64           3
    28       68           4
    28       69           1
    28       83           3
    28       88           2
    28       89           0
    29        8           4
    29       21           1
    29       30           3
    29       31           1
    29       44           4
    29       54           0
    29       67           3
    29       70           0
    29       73           3
    29       81           2
    30       15           2
    30       16           1
    30       20           1
    30       23           4
    30       25           3
    30       53           4
    30       75           2
    30       77           2
    30       82           4
    30       93           0
    31       17           2
    31       24           1
    31       30           4
    31       31           4
    31       36           2
    31       37           4
    31       43           4
    31       45           1
    31       49           2
    31       61           4
    32        6           0
    32        8           2
    32        9           1
    32       11           3
    32       15           1
    32       28           2
    32       32           1
    32       46           2
    32       52           4
    32       55           2
    33        2           4
    33        4           2
    33        6           2
    33        8           4
    33       10           1
    33       21           1
    33       30           1
    33       32           0
    33       54           1
    33       57           0
    34        4           3
    34       16           0
    34       18           3
    34       23           4
    34       40           0
    34       42           2
    34       76           1
    34       90           4
    34       91           3
    34       94           0
    35       17           1
    35       32           2
    35       34           4
    35       43           4
    35       57           0
    35       62           1
    35       63           3
    35       69           3
    35       75           3
    35       78           2
    36        9           3
    36       13           2
    36       21           4
    36       75           3
    36       89           1
    36       94           1
    36       97           2
    36       98           1
    36       99           3
    36      100           4
    37       13           0
    37       21           4
    37       26           3
    37       34           3
    37       50           3
    37       52           4
    37       59           1
    37       63           1
    37       79           3
    37       90           4
    38       11           1
    38       12           0
    38       32           3
    38       39           2
    38       40           0
    38       47           1
    38       53           3
    38       55           1
    38       58           3
    38       60           1
    39        9           3
    39       18           1
    39       30           1
    39       41           0
    39       47           0
    39       51           0
    39       60           1
    39       67           2
    39       80           3
    39       81           4
    40       28           0
    40       33           4
    40       39           4
    40       52           4
    40       61           4
    40       62           4
    40       71           0
    40       72           4
    40       76           3
    40       86           1
    41       20           3
    41       26           0
    41       27           0
    41       34           0
    41       37           2
    41       47           1
    41       52           1
    41       62           2
    41       78           2
    41       80           3
    42       22           4
    42       24           0
    42       25           2
    42       34           0
    42       37           4
    42       47           4
    42       55           2
    42       67           2
    42       71           4
    42       83           3
    43        2           2
    43       14           1
    43       16           1
    43       26           4
    43       39           3
    43       42           3
    43       51           3
    43       59           0
    43       96           0
    43       99           0
    44       32           1
    44       38           1
    44       40           3
    44       43           4
    44       52           4
    44       54           1
    44       69           3
    44       83           2
    44       85           1
    44       87           3
    45        7           4
    45       14           4
    45       19           3
    45       29           2
    45       38           2
    45       51           0
    45       66           2
    45       68           4
    45       90           0
    45       98           3
    46        2           1
    46        7           3
    46       11           3
    46       31           3
    46       33           0
    46       37           1
    46       41           4
    46       53           0
    46       57           3
    46       60           0
    47        8           3
    47        9           1
    47       18           4
    47       34           2
    47       35           0
    47       39           1
    47       50           0
    47       62           4
    47       64           1
    47       76           2
    48       38           0
    48       44           0
    48       58           3
    48       68           4
    48       71           3
    48       78           0
    48       79           4
    48       86           3
    48       88           2
    48       93           2
    49        5           2
    49       16           3
    49       35           1
    49       42           0
    49       46           2
    49       58           4
    49       67           0
    49       69           2
    49       73           3
    49       80           1
    50       24           0
    50       25           4
    50       43           2
    50       44           0
    50       75           0
    50       78           3
    50       90           3
    50       91           2
    50       93           2
    50       96           0
    51        3           0
    51        7           0
    51       43           2
    51       44           2
    51       47           0
    51       78           0
    51       79           2
    51       80           4
    51       87           1
    51       91           0
    52        2           3
    52       11           0
    52       13           4
    52       15           0
    52       21           3
    52       52           4
    52       55           0
    52       80           4
    52       83           2
    52       84           2
    53        1           3
    53        5           2
    53        9           3
    53       19           2
    53       20           0
    53       25           0
    53       40           3
    53       60           3
    53       79           1
    53       92           0
    54        8           2
    54        9           1
    54       20           1
    54       44           2
    54       55           0
    54       56           4
    54       59           2
    54       64           4
    54       74           2
    54       76           1
    55       24           0
    55       27           0
    55       46           0
    55       53           3
    55       68           2
    55       73           0
    55       85           2
    55       86           0
    55       94           3
    55       95           0
    56       25           0
    56       34           4
    56       39           3
    56       40           2
    56       48           3
    56       49           4
    56       56           2
    56       73           0
    56       81           3
    56       84           2
    57       12           4
    57       14           4
    57       33           2
    57       53           1
    57       56           1
    57       86           2
    57       96           1
    57       98           4
    57       99           3
    57      100           4
    58       25           3
    58       29           2
    58       38           2
    58       49           1
    58       50           1
    58       57           2
    58       72           1
    58       89           3
    58       93           3
    58       96           0
    59       10           3
    59       23           4
    59       36           4
    59       38           0
    59       48           1
    59       62           3
    59       67           4
    59       70           2
    59       79           0
    59       91           3
    60       11           3
    60       21           3
    60       36           1
    60       46           1
    60       67           4
    60       70           4
    60       71           4
    60       87           3
    60       89           2
    60       92           4
    61        2           0
    61        4           2
    61        7           2
    61       14           4
    61       22           1
    61       24           0
    61       28           3
    61       29           3
    61       34           3
    61       39           4
    62        1           0
    62       11           2
    62       19           0
    62       44           2
    62       64           1
    62       77           2
    62       85           2
    62       87           1
    62       90           1
    62       91           1
    63       33           4
    63       40           4
    63       42           0
    63       61           4
    63       71           2
    63       75           1
    63       83           4
    63       97           0
    63       98           0
    63      100           0
    64        5           3
    64       13           2
    64       18           4
    64       55           1
    64       56           4
    64       70           2
    64       77           4
    64       83           1
    64       90           0
    64       94           2
    65        4           3
    65        5           3
    65        7           3
    65       21           4
    65       22           1
    65       25           1
    65       29           1
    65       38           1
    65       48           3
    65       54           4
    66       11           0
    66       16           1
    66       19           0
    66       33           1
    66       40           2
    66       48           0
    66       56           3
    66       72           4
    66       74           2
    66       75           1
    67       30           0
    67       56           2
    67       58           3
    67       71           1
    67       75           1
    67       78           3
    67       80           4
    67       81           3
    67       82           0
    67       83           2
    68        4           3
    68        7           0
    68       12           3
    68       19           4
    68       24           3
    68       26           3
    68       31           4
    68       40           4
    68       42           0
    68       46           2
    69       19           4
    69       41           4
    69       45           2
    69       58           1
    69       59           1
    69       61           4
    69       65           3
    69       74           3
    69       81           1
    69       95           4
    70       13           2
    70       37           4
    70       39           3
    70       56           2
    70       78           2
    70       87           3
    70       89           0
    70       92           1
    70       93           0
    70       94           2
    71       33           0
    71       38           4
    71       52           0
    71       54           3
    71       55           2
    71       59           1
    71       63           3
    71       64           4
    71       82           1
    71       91           0
    72        4           4
    72       26           1
    72       29           2
    72       71           1
    72       77           0
    72       92           1
    72       94           1
    72       95           3
    72       96           4
    72       97           4
    73        2           2
    73        3           1
    73       10           3
    73       12           4
    73       19           0
    73       22           3
    73       64           4
    73       68           3
    73       79           1
    73       84           0
    74       12           4
    74       20           4
    74       36           3
    74       38           0
    74       70           0
    74       88           4
    74       93           4
    74       95           1
    74       97           1
    74       98           4
    75       16           1
    75       27           1
    75       37           2
    75       46           4
    75       55           1
    75       57           3
    75       63           3
    75       67           2
    75       79           4
    75       84           1
    76        3           4
    76        6           1
    76       14           0
    76       54           3
    76       66           4
    76       68           3
    76       78           0
    76       87           1
    76       93           3
    76      100           4
    77        7           4
    77       16           3
    77       18           0
    77       36           4
    77       37           2
    77       41           4
    77       42           0
    77       44           2
    77       48           0
    77       49           0
    78        8           4
    78       35           2
    78       45           2
    78       53           3
    78       57           4
    78       58           4
    78       69           2
    78       98           4
    78       99           3
    78      100           4
    79        8           0
    79       23           1
    79       28           4
    79       41           2
    79       42           4
    79       54           0
    79       63           2
    79       64           1
    79       73           2
    79       92           0
    80       15           0
    80       17           2
    80       32           3
    80       41           4
    80       46           1
    80       48           0
    80       59           4
    80       61           0
    80       63           1
    80       67           3
    81        3           0
    81       38           2
    81       48           1
    81       49           4
    81       61           2
    81       67           1
    81       85           3
    81       88           0
    81       91           3
    81       92           2
    82        2           2
    82       10           1
    82       15           2
    82       17           0
    82       32           0
    82       40           2
    82       46           1
    82       50           1
    82       55           4
    82       59           3
    83        3           4
    83        4           3
    83        9           2
    83       16           3
    83       25           4
    83       61           1
    83       88           0
    83       92           0
    83       94           1
    83       96           1
    84        6           4
    84       11           0
    84       12           3
    84       49           0
    84       52           3
    84       70           1
    84       71           4
    84       77           4
    84       94           2
    84      100           1
    85       16           0
    85       19           2
    85       22           0
    85       35           4
    85       43           2
    85       45           3
    85       65           1
    85       69           2
    85       80           4
    85       85           3
    86        2           1
    86       28           2
    86       33           4
    86       45           0
    86       51           4
    86       79           0
    86       84           2
    86       90           1
    86       98           2
    86       99           2
    87       27           1
    87       31           2
    87       33           1
    87       45           0
    87       60           1
    87       63           0
    87       65           2
    87       91           2
    87       96           0
    87      100           1
    88        7           0
    88       17           0
    88       22           4
    88       39           0
    88       41           4
    88       47           3
    88       86           3
    88       91           1
    88       95           0
    88       97           1
    89        5           3
    89       14           3
    89       17           1
    89       21           1
    89       27           3
    89       58           3
    89       60           4
    89       62           0
    89       65           2
    89       72           2
    90        1           3
    90       10           1
    90       23           3
    90       27           3
    90       28           2
    90       35           4
    90       53           0
    90       89           2
    90       93           0
    90       94           3
    91       12           3
    91       14           3
    91       24           3
    91       28           3
    91       43           3
    91       60           0
    91       61           0
    91       63           1
    91       70           0
    91       71           1
    92        3           3
    92        5           4
    92       10           0
    92       23           2
    92       35           2
    92       50           0
    92       65           2
    92       95           4
    92       97           4
    92       99           0
    93        5           3
    93       17           3
    93       29           2
    93       31           0
    93       47           1
    93       49           3
    93       50           4
    93       53           0
    93       60           1
    93       61           0
    94       10           3
    94       20           4
    94       50           1
    94       51           1
    94       57           4
    94       66           2
    94       70           3
    94       85           0
    94       86           2
    94       87           1
    95       24           3
    95       30           3
    95       35           3
    95       36           3
    95       44           1
    95       56           0
    95       72           4
    95       74           1
    95       76           3
    95       88           2
    96       15           4
    96       19           4
    96       20           2
    96       28           3
    96       55           1
    96       72           1
    96       76           1
    96       77           3
    96       81           0
    96       82           0
    97        1           1
    97        2           3
    97        3           2
    97        6           2
    97        8           3
    97       17           4
    97       22           4
    97       23           2
    97       29           2
    97       35           0
    98       17           3
    98       23           0
    98       27           4
    98       36           4
    98       43           3
    98       45           4
    98       48           3
    98       65           3
    98       70           3
    98       73           0
    99       38           0
    99       52           2
    99       53           2
    99       67           1
    99       74           2
    99       79           1
    99       82           3
    99       87           0
    99       89           1
    99       93           1
   100        1           4
   100       13           0
   100       25           3
   100       27           3
   100       49           0
   100       72           0
   100       80           2
   100       82           3
   100       87           4
   100       92           3
